NAME : netgen18-5_32
COMMENT : Generated using the function generateClusteredNetwork from the R-package netgen (Bossek,2015) - Number of clusters: 5
TYPE : TSP
DIMENSION : 18
EDGE_WEIGHT_TYPE : EUC_2D
NODE_COORD_SECTION
1 33.9674163372 34.0269313717
2 23.9598397303 41.4252704065
3 32.7406999714 30.7877434515
4 59.3804984888 78.745956856
5 55.9790645214 78.1903116896
6 61.0534264952 57.7461994509
7 17.2432728499 20.8426332959
8 6.0145568429 7.8877302725
9 25.5967849631 6.0945391558
10 98.1937571504 83.6679595221
11 87.5167266855 83.04394481
12 92.0085687635 85.9543323994
13 49.6928793691 45.8119142565
14 49.6106397814 61.29471331
15 54.0556178451 54.3952930785
16 47.2864306868 49.6371746008
17 48.1090908626 50.5580954477
18 53.9365874732 48.1673077156
EOF
